p cnf 462 1230
-24 1 0
-24 -2 0
-25 -1 0
-25 2 0
26 24 25 0
-27 3 0
-27 -4 0
-28 -3 0
-28 4 0
29 27 28 0
30 -26 -29 0
-31 5 0
-31 -6 0
-32 -5 0
-32 6 0
33 31 32 0
34 -30 -33 0
-35 7 0
-35 -8 0
-36 -7 0
-36 8 0
37 35 36 0
38 -34 -37 0
-39 9 0
-39 -10 0
-40 -9 0
-40 10 0
41 39 40 0
42 -38 -41 0
-43 11 0
-43 -12 0
-44 -11 0
-44 12 0
45 43 44 0
46 -42 -45 0
-47 13 0
-47 -14 0
-48 -13 0
-48 14 0
49 47 48 0
50 -46 -49 0
51 -15 16 0
52 15 -16 0
-53 -51 0
-53 -52 0
-54 15 0
-54 17 0
54 -15 -17 0
-55 13 0
-55 54 0
55 -13 -54 0
-56 13 0
-56 17 0
56 -13 -17 0
-57 11 0
-57 56 0
57 -11 -56 0
-58 -11 0
-58 -56 0
58 11 56 0
-59 -57 0
-59 -58 0
59 57 58 0
-60 55 0
-60 59 0
60 -55 -59 0
-61 -55 0
-61 -59 0
61 55 59 0
-62 -60 0
-62 -61 0
62 60 61 0
-63 15 0
-63 18 0
63 -15 -18 0
-64 62 0
-64 63 0
64 -62 -63 0
-65 -57 0
-65 -60 0
65 57 60 0
-66 11 0
-66 17 0
66 -11 -17 0
-67 9 0
-67 66 0
67 -9 -66 0
-68 -9 0
-68 -66 0
68 9 66 0
-69 -67 0
-69 -68 0
69 67 68 0
-70 -65 0
-70 69 0
70 65 -69 0
-71 65 0
-71 -69 0
71 -65 69 0
-72 -70 0
-72 -71 0
72 70 71 0
-73 13 0
-73 18 0
73 -13 -18 0
-74 72 0
-74 73 0
74 -72 -73 0
-75 -72 0
-75 -73 0
75 72 73 0
-76 -74 0
-76 -75 0
76 74 75 0
-77 64 0
-77 76 0
77 -64 -76 0
-78 -64 0
-78 -76 0
78 64 76 0
-79 -77 0
-79 -78 0
79 77 78 0
-80 15 0
-80 19 0
80 -15 -19 0
-81 79 0
-81 80 0
81 -79 -80 0
-82 -74 0
-82 -77 0
82 74 77 0
-83 -67 0
-83 -70 0
83 67 70 0
-84 9 0
-84 17 0
84 -9 -17 0
-85 7 0
-85 84 0
85 -7 -84 0
-86 -7 0
-86 -84 0
86 7 84 0
-87 -85 0
-87 -86 0
87 85 86 0
-88 -83 0
-88 87 0
88 83 -87 0
-89 83 0
-89 -87 0
89 -83 87 0
-90 -88 0
-90 -89 0
90 88 89 0
-91 11 0
-91 18 0
91 -11 -18 0
-92 90 0
-92 91 0
92 -90 -91 0
-93 -90 0
-93 -91 0
93 90 91 0
-94 -92 0
-94 -93 0
94 92 93 0
-95 -82 0
-95 94 0
95 82 -94 0
-96 82 0
-96 -94 0
96 -82 94 0
-97 -95 0
-97 -96 0
97 95 96 0
-98 13 0
-98 19 0
98 -13 -19 0
-99 97 0
-99 98 0
99 -97 -98 0
-100 -97 0
-100 -98 0
100 97 98 0
-101 -99 0
-101 -100 0
101 99 100 0
-102 81 0
-102 101 0
102 -81 -101 0
-103 -81 0
-103 -101 0
103 81 101 0
-104 -102 0
-104 -103 0
104 102 103 0
-105 15 0
-105 20 0
105 -15 -20 0
-106 104 0
-106 105 0
106 -104 -105 0
-107 -99 0
-107 -102 0
107 99 102 0
-108 -92 0
-108 -95 0
108 92 95 0
-109 -85 0
-109 -88 0
109 85 88 0
-110 7 0
-110 17 0
110 -7 -17 0
-111 5 0
-111 110 0
111 -5 -110 0
-112 -5 0
-112 -110 0
112 5 110 0
-113 -111 0
-113 -112 0
113 111 112 0
-114 -109 0
-114 113 0
114 109 -113 0
-115 109 0
-115 -113 0
115 -109 113 0
-116 -114 0
-116 -115 0
116 114 115 0
-117 9 0
-117 18 0
117 -9 -18 0
-118 116 0
-118 117 0
118 -116 -117 0
-119 -116 0
-119 -117 0
119 116 117 0
-120 -118 0
-120 -119 0
120 118 119 0
-121 -108 0
-121 120 0
121 108 -120 0
-122 108 0
-122 -120 0
122 -108 120 0
-123 -121 0
-123 -122 0
123 121 122 0
-124 11 0
-124 19 0
124 -11 -19 0
-125 123 0
-125 124 0
125 -123 -124 0
-126 -123 0
-126 -124 0
126 123 124 0
-127 -125 0
-127 -126 0
127 125 126 0
-128 -107 0
-128 127 0
128 107 -127 0
-129 107 0
-129 -127 0
129 -107 127 0
-130 -128 0
-130 -129 0
130 128 129 0
-131 13 0
-131 20 0
131 -13 -20 0
-132 130 0
-132 131 0
132 -130 -131 0
-133 -130 0
-133 -131 0
133 130 131 0
-134 -132 0
-134 -133 0
134 132 133 0
-135 106 0
-135 134 0
135 -106 -134 0
-136 -106 0
-136 -134 0
136 106 134 0
-137 -135 0
-137 -136 0
137 135 136 0
-138 15 0
-138 21 0
138 -15 -21 0
-139 137 0
-139 138 0
139 -137 -138 0
-140 -132 0
-140 -135 0
140 132 135 0
-141 -125 0
-141 -128 0
141 125 128 0
-142 -118 0
-142 -121 0
142 118 121 0
-143 -111 0
-143 -114 0
143 111 114 0
-144 5 0
-144 17 0
144 -5 -17 0
-145 3 0
-145 144 0
145 -3 -144 0
-146 -3 0
-146 -144 0
146 3 144 0
-147 -145 0
-147 -146 0
147 145 146 0
-148 -143 0
-148 147 0
148 143 -147 0
-149 143 0
-149 -147 0
149 -143 147 0
-150 -148 0
-150 -149 0
150 148 149 0
-151 7 0
-151 18 0
151 -7 -18 0
-152 150 0
-152 151 0
152 -150 -151 0
-153 -150 0
-153 -151 0
153 150 151 0
-154 -152 0
-154 -153 0
154 152 153 0
-155 -142 0
-155 154 0
155 142 -154 0
-156 142 0
-156 -154 0
156 -142 154 0
-157 -155 0
-157 -156 0
157 155 156 0
-158 9 0
-158 19 0
158 -9 -19 0
-159 157 0
-159 158 0
159 -157 -158 0
-160 -157 0
-160 -158 0
160 157 158 0
-161 -159 0
-161 -160 0
161 159 160 0
-162 -141 0
-162 161 0
162 141 -161 0
-163 141 0
-163 -161 0
163 -141 161 0
-164 -162 0
-164 -163 0
164 162 163 0
-165 11 0
-165 20 0
165 -11 -20 0
-166 164 0
-166 165 0
166 -164 -165 0
-167 -164 0
-167 -165 0
167 164 165 0
-168 -166 0
-168 -167 0
168 166 167 0
-169 -140 0
-169 168 0
169 140 -168 0
-170 140 0
-170 -168 0
170 -140 168 0
-171 -169 0
-171 -170 0
171 169 170 0
-172 13 0
-172 21 0
172 -13 -21 0
-173 171 0
-173 172 0
173 -171 -172 0
-174 -171 0
-174 -172 0
174 171 172 0
-175 -173 0
-175 -174 0
175 173 174 0
-176 139 0
-176 175 0
176 -139 -175 0
-177 -139 0
-177 -175 0
177 139 175 0
-178 -176 0
-178 -177 0
178 176 177 0
-179 15 0
-179 22 0
179 -15 -22 0
-180 178 0
-180 179 0
180 -178 -179 0
-181 -173 0
-181 -176 0
181 173 176 0
-182 -166 0
-182 -169 0
182 166 169 0
-183 -159 0
-183 -162 0
183 159 162 0
-184 -152 0
-184 -155 0
184 152 155 0
-185 -145 0
-185 -148 0
185 145 148 0
-186 3 0
-186 17 0
186 -3 -17 0
-187 1 0
-187 186 0
187 -1 -186 0
-188 -1 0
-188 -186 0
188 1 186 0
-189 -187 0
-189 -188 0
189 187 188 0
-190 -185 0
-190 189 0
190 185 -189 0
-191 185 0
-191 -189 0
191 -185 189 0
-192 -190 0
-192 -191 0
192 190 191 0
-193 5 0
-193 18 0
193 -5 -18 0
-194 192 0
-194 193 0
194 -192 -193 0
-195 -192 0
-195 -193 0
195 192 193 0
-196 -194 0
-196 -195 0
196 194 195 0
-197 -184 0
-197 196 0
197 184 -196 0
-198 184 0
-198 -196 0
198 -184 196 0
-199 -197 0
-199 -198 0
199 197 198 0
-200 7 0
-200 19 0
200 -7 -19 0
-201 199 0
-201 200 0
201 -199 -200 0
-202 -199 0
-202 -200 0
202 199 200 0
-203 -201 0
-203 -202 0
203 201 202 0
-204 -183 0
-204 203 0
204 183 -203 0
-205 183 0
-205 -203 0
205 -183 203 0
-206 -204 0
-206 -205 0
206 204 205 0
-207 9 0
-207 20 0
207 -9 -20 0
-208 206 0
-208 207 0
208 -206 -207 0
-209 -206 0
-209 -207 0
209 206 207 0
-210 -208 0
-210 -209 0
210 208 209 0
-211 -182 0
-211 210 0
211 182 -210 0
-212 182 0
-212 -210 0
212 -182 210 0
-213 -211 0
-213 -212 0
213 211 212 0
-214 11 0
-214 21 0
214 -11 -21 0
-215 213 0
-215 214 0
215 -213 -214 0
-216 -213 0
-216 -214 0
216 213 214 0
-217 -215 0
-217 -216 0
217 215 216 0
-218 -181 0
-218 217 0
218 181 -217 0
-219 181 0
-219 -217 0
219 -181 217 0
-220 -218 0
-220 -219 0
220 218 219 0
-221 13 0
-221 22 0
221 -13 -22 0
-222 220 0
-222 221 0
222 -220 -221 0
-223 -220 0
-223 -221 0
223 220 221 0
-224 -222 0
-224 -223 0
224 222 223 0
-225 180 0
-225 224 0
225 -180 -224 0
-226 -180 0
-226 -224 0
226 180 224 0
-227 -225 0
-227 -226 0
227 225 226 0
-228 15 0
-228 23 0
228 -15 -23 0
-229 227 0
-229 228 0
229 -227 -228 0
-230 -227 0
-230 -228 0
230 227 228 0
-231 -229 0
-231 -230 0
231 229 230 0
-232 16 0
-232 17 0
232 -16 -17 0
-233 14 0
-233 232 0
233 -14 -232 0
-234 14 0
-234 17 0
234 -14 -17 0
-235 12 0
-235 234 0
235 -12 -234 0
-236 -12 0
-236 -234 0
236 12 234 0
-237 -235 0
-237 -236 0
237 235 236 0
-238 233 0
-238 237 0
238 -233 -237 0
-239 -233 0
-239 -237 0
239 233 237 0
-240 -238 0
-240 -239 0
240 238 239 0
-241 16 0
-241 18 0
241 -16 -18 0
-242 240 0
-242 241 0
242 -240 -241 0
-243 -235 0
-243 -238 0
243 235 238 0
-244 12 0
-244 17 0
244 -12 -17 0
-245 10 0
-245 244 0
245 -10 -244 0
-246 -10 0
-246 -244 0
246 10 244 0
-247 -245 0
-247 -246 0
247 245 246 0
-248 -243 0
-248 247 0
248 243 -247 0
-249 243 0
-249 -247 0
249 -243 247 0
-250 -248 0
-250 -249 0
250 248 249 0
-251 14 0
-251 18 0
251 -14 -18 0
-252 250 0
-252 251 0
252 -250 -251 0
-253 -250 0
-253 -251 0
253 250 251 0
-254 -252 0
-254 -253 0
254 252 253 0
-255 242 0
-255 254 0
255 -242 -254 0
-256 -242 0
-256 -254 0
256 242 254 0
-257 -255 0
-257 -256 0
257 255 256 0
-258 16 0
-258 19 0
258 -16 -19 0
-259 257 0
-259 258 0
259 -257 -258 0
-260 -252 0
-260 -255 0
260 252 255 0
-261 -245 0
-261 -248 0
261 245 248 0
-262 10 0
-262 17 0
262 -10 -17 0
-263 8 0
-263 262 0
263 -8 -262 0
-264 -8 0
-264 -262 0
264 8 262 0
-265 -263 0
-265 -264 0
265 263 264 0
-266 -261 0
-266 265 0
266 261 -265 0
-267 261 0
-267 -265 0
267 -261 265 0
-268 -266 0
-268 -267 0
268 266 267 0
-269 12 0
-269 18 0
269 -12 -18 0
-270 268 0
-270 269 0
270 -268 -269 0
-271 -268 0
-271 -269 0
271 268 269 0
-272 -270 0
-272 -271 0
272 270 271 0
-273 -260 0
-273 272 0
273 260 -272 0
-274 260 0
-274 -272 0
274 -260 272 0
-275 -273 0
-275 -274 0
275 273 274 0
-276 14 0
-276 19 0
276 -14 -19 0
-277 275 0
-277 276 0
277 -275 -276 0
-278 -275 0
-278 -276 0
278 275 276 0
-279 -277 0
-279 -278 0
279 277 278 0
-280 259 0
-280 279 0
280 -259 -279 0
-281 -259 0
-281 -279 0
281 259 279 0
-282 -280 0
-282 -281 0
282 280 281 0
-283 16 0
-283 20 0
283 -16 -20 0
-284 282 0
-284 283 0
284 -282 -283 0
-285 -277 0
-285 -280 0
285 277 280 0
-286 -270 0
-286 -273 0
286 270 273 0
-287 -263 0
-287 -266 0
287 263 266 0
-288 8 0
-288 17 0
288 -8 -17 0
-289 6 0
-289 288 0
289 -6 -288 0
-290 -6 0
-290 -288 0
290 6 288 0
-291 -289 0
-291 -290 0
291 289 290 0
-292 -287 0
-292 291 0
292 287 -291 0
-293 287 0
-293 -291 0
293 -287 291 0
-294 -292 0
-294 -293 0
294 292 293 0
-295 10 0
-295 18 0
295 -10 -18 0
-296 294 0
-296 295 0
296 -294 -295 0
-297 -294 0
-297 -295 0
297 294 295 0
-298 -296 0
-298 -297 0
298 296 297 0
-299 -286 0
-299 298 0
299 286 -298 0
-300 286 0
-300 -298 0
300 -286 298 0
-301 -299 0
-301 -300 0
301 299 300 0
-302 12 0
-302 19 0
302 -12 -19 0
-303 301 0
-303 302 0
303 -301 -302 0
-304 -301 0
-304 -302 0
304 301 302 0
-305 -303 0
-305 -304 0
305 303 304 0
-306 -285 0
-306 305 0
306 285 -305 0
-307 285 0
-307 -305 0
307 -285 305 0
-308 -306 0
-308 -307 0
308 306 307 0
-309 14 0
-309 20 0
309 -14 -20 0
-310 308 0
-310 309 0
310 -308 -309 0
-311 -308 0
-311 -309 0
311 308 309 0
-312 -310 0
-312 -311 0
312 310 311 0
-313 284 0
-313 312 0
313 -284 -312 0
-314 -284 0
-314 -312 0
314 284 312 0
-315 -313 0
-315 -314 0
315 313 314 0
-316 16 0
-316 21 0
316 -16 -21 0
-317 315 0
-317 316 0
317 -315 -316 0
-318 -310 0
-318 -313 0
318 310 313 0
-319 -303 0
-319 -306 0
319 303 306 0
-320 -296 0
-320 -299 0
320 296 299 0
-321 -289 0
-321 -292 0
321 289 292 0
-322 6 0
-322 17 0
322 -6 -17 0
-323 4 0
-323 322 0
323 -4 -322 0
-324 -4 0
-324 -322 0
324 4 322 0
-325 -323 0
-325 -324 0
325 323 324 0
-326 -321 0
-326 325 0
326 321 -325 0
-327 321 0
-327 -325 0
327 -321 325 0
-328 -326 0
-328 -327 0
328 326 327 0
-329 8 0
-329 18 0
329 -8 -18 0
-330 328 0
-330 329 0
330 -328 -329 0
-331 -328 0
-331 -329 0
331 328 329 0
-332 -330 0
-332 -331 0
332 330 331 0
-333 -320 0
-333 332 0
333 320 -332 0
-334 320 0
-334 -332 0
334 -320 332 0
-335 -333 0
-335 -334 0
335 333 334 0
-336 10 0
-336 19 0
336 -10 -19 0
-337 335 0
-337 336 0
337 -335 -336 0
-338 -335 0
-338 -336 0
338 335 336 0
-339 -337 0
-339 -338 0
339 337 338 0
-340 -319 0
-340 339 0
340 319 -339 0
-341 319 0
-341 -339 0
341 -319 339 0
-342 -340 0
-342 -341 0
342 340 341 0
-343 12 0
-343 20 0
343 -12 -20 0
-344 342 0
-344 343 0
344 -342 -343 0
-345 -342 0
-345 -343 0
345 342 343 0
-346 -344 0
-346 -345 0
346 344 345 0
-347 -318 0
-347 346 0
347 318 -346 0
-348 318 0
-348 -346 0
348 -318 346 0
-349 -347 0
-349 -348 0
349 347 348 0
-350 14 0
-350 21 0
350 -14 -21 0
-351 349 0
-351 350 0
351 -349 -350 0
-352 -349 0
-352 -350 0
352 349 350 0
-353 -351 0
-353 -352 0
353 351 352 0
-354 317 0
-354 353 0
354 -317 -353 0
-355 -317 0
-355 -353 0
355 317 353 0
-356 -354 0
-356 -355 0
356 354 355 0
-357 16 0
-357 22 0
357 -16 -22 0
-358 356 0
-358 357 0
358 -356 -357 0
-359 -351 0
-359 -354 0
359 351 354 0
-360 -344 0
-360 -347 0
360 344 347 0
-361 -337 0
-361 -340 0
361 337 340 0
-362 -330 0
-362 -333 0
362 330 333 0
-363 -323 0
-363 -326 0
363 323 326 0
-364 4 0
-364 17 0
364 -4 -17 0
-365 2 0
-365 364 0
365 -2 -364 0
-366 -2 0
-366 -364 0
366 2 364 0
-367 -365 0
-367 -366 0
367 365 366 0
-368 -363 0
-368 367 0
368 363 -367 0
-369 363 0
-369 -367 0
369 -363 367 0
-370 -368 0
-370 -369 0
370 368 369 0
-371 6 0
-371 18 0
371 -6 -18 0
-372 370 0
-372 371 0
372 -370 -371 0
-373 -370 0
-373 -371 0
373 370 371 0
-374 -372 0
-374 -373 0
374 372 373 0
-375 -362 0
-375 374 0
375 362 -374 0
-376 362 0
-376 -374 0
376 -362 374 0
-377 -375 0
-377 -376 0
377 375 376 0
-378 8 0
-378 19 0
378 -8 -19 0
-379 377 0
-379 378 0
379 -377 -378 0
-380 -377 0
-380 -378 0
380 377 378 0
-381 -379 0
-381 -380 0
381 379 380 0
-382 -361 0
-382 381 0
382 361 -381 0
-383 361 0
-383 -381 0
383 -361 381 0
-384 -382 0
-384 -383 0
384 382 383 0
-385 10 0
-385 20 0
385 -10 -20 0
-386 384 0
-386 385 0
386 -384 -385 0
-387 -384 0
-387 -385 0
387 384 385 0
-388 -386 0
-388 -387 0
388 386 387 0
-389 -360 0
-389 388 0
389 360 -388 0
-390 360 0
-390 -388 0
390 -360 388 0
-391 -389 0
-391 -390 0
391 389 390 0
-392 12 0
-392 21 0
392 -12 -21 0
-393 391 0
-393 392 0
393 -391 -392 0
-394 -391 0
-394 -392 0
394 391 392 0
-395 -393 0
-395 -394 0
395 393 394 0
-396 -359 0
-396 395 0
396 359 -395 0
-397 359 0
-397 -395 0
397 -359 395 0
-398 -396 0
-398 -397 0
398 396 397 0
-399 14 0
-399 22 0
399 -14 -22 0
-400 398 0
-400 399 0
400 -398 -399 0
-401 -398 0
-401 -399 0
401 398 399 0
-402 -400 0
-402 -401 0
402 400 401 0
-403 358 0
-403 402 0
403 -358 -402 0
-404 -358 0
-404 -402 0
404 358 402 0
-405 -403 0
-405 -404 0
405 403 404 0
-406 16 0
-406 23 0
406 -16 -23 0
-407 405 0
-407 406 0
407 -405 -406 0
-408 -405 0
-408 -406 0
408 405 406 0
-409 -407 0
-409 -408 0
409 407 408 0
410 -231 409 0
411 231 -409 0
-412 -410 0
-412 -411 0
-413 -178 0
-413 -179 0
413 178 179 0
-414 -180 0
-414 -413 0
414 180 413 0
-415 -356 0
-415 -357 0
415 356 357 0
-416 -358 0
-416 -415 0
416 358 415 0
417 -414 416 0
418 414 -416 0
-419 -417 0
-419 -418 0
-420 412 0
-420 419 0
-421 -137 0
-421 -138 0
421 137 138 0
-422 -139 0
-422 -421 0
422 139 421 0
-423 -315 0
-423 -316 0
423 315 316 0
-424 -317 0
-424 -423 0
424 317 423 0
425 -422 424 0
426 422 -424 0
-427 -425 0
-427 -426 0
-428 420 0
-428 427 0
-429 -104 0
-429 -105 0
429 104 105 0
-430 -106 0
-430 -429 0
430 106 429 0
-431 -282 0
-431 -283 0
431 282 283 0
-432 -284 0
-432 -431 0
432 284 431 0
433 -430 432 0
434 430 -432 0
-435 -433 0
-435 -434 0
-436 428 0
-436 435 0
-437 -79 0
-437 -80 0
437 79 80 0
-438 -81 0
-438 -437 0
438 81 437 0
-439 -257 0
-439 -258 0
439 257 258 0
-440 -259 0
-440 -439 0
440 259 439 0
441 -438 440 0
442 438 -440 0
-443 -441 0
-443 -442 0
-444 436 0
-444 443 0
-445 -62 0
-445 -63 0
445 62 63 0
-446 -64 0
-446 -445 0
446 64 445 0
-447 -240 0
-447 -241 0
447 240 241 0
-448 -242 0
-448 -447 0
448 242 447 0
449 -446 448 0
450 446 -448 0
-451 -449 0
-451 -450 0
-452 444 0
-452 451 0
-453 -13 0
-453 -54 0
453 13 54 0
-454 -55 0
-454 -453 0
454 55 453 0
-455 -14 0
-455 -232 0
455 14 232 0
-456 -233 0
-456 -455 0
456 233 455 0
457 -454 456 0
458 454 -456 0
-459 -457 0
-459 -458 0
-460 452 0
-460 459 0
-461 53 0
-461 460 0
-462 -50 0
-462 461 0
462 0
